# ============= define variables
variable	scCu equal 2.56
variable	L1 equal ${scCu}*5
variable	L2 equal ${scCu}*5
variable	Ti equal 1
variable	Tf equal 0

# ============= basic parameters
units 		metal
boundary 	p p p
atom_style 	atomic

# ============= create box
region 		system block -${L1} ${L1} -${L1} ${L1} -${L1} ${L1}
region 		cube block -${L2} ${L2} -${L2} ${L2} -${L2} ${L2}
create_box 	1 system

# ============= force field
pair_style 	eam/alloy
pair_coeff 	* * Cu_zhou.eam.alloy Cu

# ============= create atoms (last command used to re-set lattice to default value)
lattice 	sc   ${scCu}
create_atoms 	1 region cube
lattice 	none 1.0

# ============= give atoms velocity
# ============= fix nve + berendsen = NVT ensemble
# ============= temperature increases from 1 K to 2500 K
# ============= set timestep (1 fs)
velocity 	all create ${Ti} 425521 rot yes mom yes dist gaussian
fix		mynve all nve
fix 		myber all temp/berendsen ${Ti} ${Tf} 0.1
fix 		myrc all recenter INIT INIT INIT
timestep	0.001

# ============= dump atom positions every 1 ps and log info every 1 ps
dump		dp1 all atom 1000 dump.lammpstrj
thermo		1000

# ============= run (100 ps)
run		10000 
