# Initialisation

variable        T equal 293

units           metal
atom_style      full
boundary        p p p
pair_style      airebo 1.0  1 1

# System definition
read_data       CNT.lammps
pair_coeff      * * CH.airebo C
# Simulation settings

group		gcar type 1
variable	zmax equal bound(gcar,zmax)-0.5
variable	zmin equal bound(gcar,zmin)+0.5
region		rtop block INF INF INF INF ${zmax} INF
region		rbot block INF INF INF INF INF ${zmin}
region		rmid block INF INF INF INF ${zmin} ${zmax}

group		gtop region rtop
group		gbot region rbot
group		gmid region rmid

velocity	gmid create ${T} 48455 mom yes rot yes
fix		mynve all nve
compute		Tmid gmid temp
fix		myber gmid temp/berendsen ${T} ${T} 0.1
fix_modify	myber temp Tmid

fix 		mysf1 gbot setforce NULL NULL 0
fix 		mysf2 gtop setforce NULL NULL 0
velocity	gbot set NULL NULL 0
velocity	gtop set NULL NULL 0

variable	pos equal xcm(gtop,z)
fix 		at1 all ave/time 10 100 1000 v_pos file cnt_deflection.dat
fix 		at2 all ave/time 10 100 1000 f_mysf1[1] f_mysf2[1] file force.dat
dump 		mydmp all atom 1000 dump.lammpstrj

thermo		100
thermo_modify 	temp Tmid

#print CNT length and force every 0.05 ps
variable	L equal v_zmax-v_zmin # length of the central part
fix 		myat1 all ave/time 10 10 100 v_L file tubeLength.dat
variable	longforce equal f_mysf1[3]-f_mysf2[3]
fix 		myat2 all ave/time 10 10 100 v_longforce file forcetube.dat

# Run

timestep	0.0001
run		150000

# 0.05 A/ps = 10 m/s
velocity	gtop set NULL NULL 0.05

run		5000
